30 1000
9 312
32 666
1 994
47 32
83 642
2 534
91 52
45 850
96 533
34 899
44 183
99 961
59 107
8 935
68 203
17 609
75 671
48 24
74 995
71 973
93 799
83 578
84 229
52 743
39 792
93 907
90 744
2 795
44 594
46 344
